sat
(
  (define-fun C3_VM9 () Int
    0)
  (define-fun C1_VM8 () Int
    1)
  (define-fun MemProv9 () Int
    1350)
  (define-fun C4_VM8 () Int
    0)
  (define-fun C5_VM2 () Int
    0)
  (define-fun C2_VM3 () Int
    0)
  (define-fun VM9Type () Int
    1)
  (define-fun C4_VM11 () Int
    0)
  (define-fun C5_VM6 () Int
    0)
  (define-fun PriceProv1 () Int
    120)
  (define-fun C2_VM2 () Int
    0)
  (define-fun PriceProv2 () Int
    0)
  (define-fun C3_VM10 () Int
    0)
  (define-fun C1_VM5 () Int
    1)
  (define-fun C3_VM4 () Int
    0)
  (define-fun ProcProv8 () Int
    900)
  (define-fun C3_VM7 () Int
    1)
  (define-fun C5_VM12 () Int
    0)
  (define-fun C5_VM3 () Int
    0)
  (define-fun C4_VM4 () Int
    0)
  (define-fun PriceProv11 () Int
    0)
  (define-fun StorageProv10 () Int
    141000)
  (define-fun C2_VM4 () Int
    0)
  (define-fun ProcProv11 () Int
    1801)
  (define-fun C1_VM1 () Int
    1)
  (define-fun C3_VM2 () Int
    0)
  (define-fun StorageProv9 () Int
    42000)
  (define-fun MemProv7 () Int
    3150)
  (define-fun C3_VM3 () Int
    0)
  (define-fun C2_VM12 () Int
    0)
  (define-fun C1_VM7 () Int
    0)
  (define-fun C3_VM5 () Int
    0)
  (define-fun MemProv8 () Int
    1350)
  (define-fun VM10Type () Int
    10)
  (define-fun PriceProv7 () Int
    240)
  (define-fun C1_VM9 () Int
    1)
  (define-fun C1_VM13 () Int
    1)
  (define-fun C2_VM5 () Int
    1)
  (define-fun C4_VM3 () Int
    0)
  (define-fun VM3Type () Int
    0)
  (define-fun VM8Type () Int
    1)
  (define-fun MemProv4 () Int
    1350)
  (define-fun StorageProv8 () Int
    42000)
  (define-fun C5_VM5 () Int
    0)
  (define-fun C4_VM6 () Int
    0)
  (define-fun C1_VM10 () Int
    1)
  (define-fun StorageProv1 () Int
    42000)
  (define-fun StorageProv3 () Int
    402001)
  (define-fun PriceProv4 () Int
    0)
  (define-fun StorageProv7 () Int
    69000)
  (define-fun C5_VM7 () Int
    0)
  (define-fun C2_VM11 () Int
    0)
  (define-fun VM13Type () Int
    10)
  (define-fun C5_VM1 () Int
    0)
  (define-fun PriceProv8 () Int
    120)
  (define-fun StorageProv13 () Int
    141000)
  (define-fun C4_VM5 () Int
    0)
  (define-fun C1_VM3 () Int
    0)
  (define-fun ProcProv4 () Int
    900)
  (define-fun C2_VM13 () Int
    0)
  (define-fun ProcProv13 () Int
    3600)
  (define-fun C2_VM8 () Int
    1)
  (define-fun MemProv6 () Int
    6751)
  (define-fun ProcProv3 () Int
    3601)
  (define-fun C1_VM11 () Int
    0)
  (define-fun PriceProv9 () Int
    120)
  (define-fun PriceProv6 () Int
    0)
  (define-fun C1_VM6 () Int
    0)
  (define-fun C2_VM10 () Int
    0)
  (define-fun ProcProv2 () Int
    1801)
  (define-fun C3_VM1 () Int
    0)
  (define-fun C5_VM9 () Int
    0)
  (define-fun C3_VM12 () Int
    0)
  (define-fun PriceProv3 () Int
    0)
  (define-fun C5_VM4 () Int
    0)
  (define-fun C2_VM9 () Int
    1)
  (define-fun VM7Type () Int
    7)
  (define-fun ProcProv9 () Int
    900)
  (define-fun C1_VM2 () Int
    0)
  (define-fun ProcProv5 () Int
    900)
  (define-fun VM4Type () Int
    0)
  (define-fun C4_VM7 () Int
    0)
  (define-fun C1_VM4 () Int
    0)
  (define-fun StorageProv12 () Int
    42000)
  (define-fun MemProv12 () Int
    3151)
  (define-fun C2_VM7 () Int
    0)
  (define-fun ProcProv12 () Int
    900)
  (define-fun VM12Type () Int
    0)
  (define-fun StorageProv11 () Int
    141001)
  (define-fun MemProv1 () Int
    1350)
  (define-fun C1_VM12 () Int
    0)
  (define-fun MemProv5 () Int
    1350)
  (define-fun MemProv2 () Int
    28351)
  (define-fun C5_VM10 () Int
    1)
  (define-fun C5_VM8 () Int
    0)
  (define-fun C3_VM6 () Int
    0)
  (define-fun C4_VM2 () Int
    0)
  (define-fun MemProv13 () Int
    6750)
  (define-fun PriceProv13 () Int
    480)
  (define-fun ProcProv10 () Int
    3600)
  (define-fun ProcProv6 () Int
    1801)
  (define-fun C2_VM1 () Int
    1)
  (define-fun C5_VM11 () Int
    0)
  (define-fun StorageProv4 () Int
    42000)
  (define-fun MemProv10 () Int
    6750)
  (define-fun VM2Type () Int
    0)
  (define-fun C5_VM13 () Int
    1)
  (define-fun VM11Type () Int
    0)
  (define-fun VM6Type () Int
    0)
  (define-fun PriceProv12 () Int
    0)
  (define-fun MemProv11 () Int
    13951)
  (define-fun C4_VM12 () Int
    0)
  (define-fun C3_VM13 () Int
    0)
  (define-fun C4_VM13 () Int
    0)
  (define-fun VM1Type () Int
    1)
  (define-fun C3_VM11 () Int
    0)
  (define-fun StorageProv6 () Int
    141001)
  (define-fun C3_VM8 () Int
    0)
  (define-fun VM5Type () Int
    1)
  (define-fun C2_VM6 () Int
    0)
  (define-fun MemProv3 () Int
    28351)
  (define-fun StorageProv2 () Int
    51001)
  (define-fun ProcProv7 () Int
    1800)
  (define-fun StorageProv5 () Int
    42000)
  (define-fun C4_VM9 () Int
    0)
  (define-fun ProcProv1 () Int
    900)
  (define-fun PriceProv5 () Int
    120)
  (define-fun C4_VM1 () Int
    0)
  (define-fun C4_VM10 () Int
    0)
  (define-fun PriceProv10 () Int
    480)
)
(objectives
 ((+ 0
   PriceProv1
   PriceProv2
   PriceProv3
   PriceProv4
   PriceProv5
   PriceProv6
   PriceProv7
   PriceProv8
   PriceProv9
   PriceProv10
   PriceProv11
   PriceProv12
   PriceProv13) 1680)
)
(:added-eqs                   30352199
 :arith-eq-adapter            8447
 :arith-bound-propagations-lp 8127826
 :arith-conflicts             70486
 :arith-diseq                 21959409
 :arith-fixed-eqs             6982
 :arith-lower                 39343135
 :arith-make-feasible         1610606
 :arith-max-columns           205
 :arith-max-rows              41
 :arith-upper                 9055215
 :binary-propagations         120675467
 :conflicts                   649758
 :decisions                   956393
 :del-clause                  8799535
 :final-checks                77
 :max-memory                  505.52
 :memory                      504.62
 :minimized-lits              8085299
 :mk-bool-var                 19509
 :mk-clause                   8801568
 :mk-clause-binary            6177
 :num-allocs                  2729153922
 :num-checks                  60
 :pb-conflicts                54983
 :pb-predicates               657
 :pb-propagations             1314644
 :pb-resolves                 39696
 :propagations                267648896
 :restarts                    1455
 :rlimit-count                1013226158
 :time                        508.11
 :total-time                  508.11)
